!
!   GAMESS Calculation input file
!   molecula de prueba JAAM
!
 $CONTRL SCFTYP=RHF MAXIT=200 RUNTYP=OPTIMIZE
         COORD=UNIQUE MULT=1 
         ICHARG=0  
         DFTTYP=B3LYP
         MOLPLT=.FALSE. PLTORB=.FALSE.  $END
 $SYSTEM TIMLIM=2879 MWORDS=250  $END

 $FORCE METHOD=SEMINUM NVIB=2 $END 
 $STATPT OPTTOL=0.0005 NSTEP=999 $END
 $STATPT IHREP=0 HSSEND=.TRUE.  $END

 $DFT    METHOD=GRID  NLEB=590  $END

 $BASIS  GBASIS=N31 NGAUSS=6
         NDFUNC=1   NPFUNC=0  $END

 $SCF    DIRSCF=.T. $END
 $GUESS  GUESS=HUCKEL  $END

 $DATA
   molecula de prueba JAAM
  C1
O     8.0    -1.71790    -0.03493     0.11809
C     6.0    -0.57089    -0.45311     0.00051
C     6.0     0.59061     0.47081    -0.03684
C     6.0     1.86589     0.04816    -0.09401
H     1.0    -0.34237    -1.52737    -0.08128
H     1.0     0.34630     1.52375    -0.01140
H     1.0     2.13770    -0.99933    -0.11250
H     1.0     2.67091     0.77323    -0.11712
 $END


! Customizations after this line are persisted when using Do More Calculations
